p cnf 268 803
11 16 0 
-11 -16 0 
-11 -215 190 0 
-11 -215 24 0 
-108 -216 193 0 
-108 -216 28 0 
-113 -217 196 0 
-113 -217 32 0 
-118 -218 199 0 
-118 -218 36 0 
-123 -219 202 0 
-123 -219 40 0 
-128 -220 205 0 
-128 -220 44 0 
-133 -221 208 0 
-133 -221 48 0 
-138 -222 211 0 
-138 -222 52 0 
-143 -223 214 0 
-143 -223 56 0 
-16 -224 190 0 
-16 -224 57 0 
-149 -225 193 0 
-149 -225 61 0 
-154 -226 196 0 
-154 -226 65 0 
-159 -227 199 0 
-159 -227 69 0 
-164 -228 202 0 
-164 -228 73 0 
-169 -229 205 0 
-169 -229 77 0 
-174 -230 208 0 
-174 -230 81 0 
-179 -231 211 0 
-179 -231 85 0 
-184 -232 214 0 
-184 -232 89 0 
-11 -9 -233 24 0 
-11 -9 -233 108 0 
-11 -9 -233 -108 0 
-108 -90 -234 28 0 
-108 -90 -234 113 0 
-108 -90 -234 -113 0 
-113 -91 -235 32 0 
-113 -91 -235 118 0 
-113 -91 -235 -118 0 
-118 -92 -236 36 0 
-118 -92 -236 123 0 
-118 -92 -236 -123 0 
-123 -93 -237 40 0 
-123 -93 -237 128 0 
-123 -93 -237 -128 0 
-128 -94 -238 44 0 
-128 -94 -238 133 0 
-128 -94 -238 -133 0 
-133 -95 -239 48 0 
-133 -95 -239 138 0 
-133 -95 -239 -138 0 
-138 -96 -240 52 0 
-138 -96 -240 143 0 
-138 -96 -240 -143 0 
-143 -97 -241 56 0 
-143 -97 -241 148 0 
-143 -97 -241 -148 0 
-11 -242 57 0 
-11 -242 149 0 
-11 -242 -108 0 
-108 -243 61 0 
-108 -243 154 0 
-108 -243 -113 0 
-113 -244 65 0 
-113 -244 159 0 
-113 -244 -118 0 
-118 -245 69 0 
-118 -245 164 0 
-118 -245 -123 0 
-123 -246 73 0 
-123 -246 169 0 
-123 -246 -128 0 
-128 -247 77 0 
-128 -247 174 0 
-128 -247 -133 0 
-133 -248 81 0 
-133 -248 179 0 
-133 -248 -138 0 
-138 -249 85 0 
-138 -249 184 0 
-138 -249 -143 0 
-143 -250 89 0 
-143 -250 189 0 
-143 -250 -148 0 
-16 -251 24 0 
-16 -251 108 0 
-16 -251 -149 0 
-149 -252 28 0 
-149 -252 113 0 
-149 -252 -154 0 
-154 -253 32 0 
-154 -253 118 0 
-154 -253 -159 0 
-159 -254 36 0 
-159 -254 123 0 
-159 -254 -164 0 
-164 -255 40 0 
-164 -255 128 0 
-164 -255 -169 0 
-169 -256 44 0 
-169 -256 133 0 
-169 -256 -174 0 
-174 -257 48 0 
-174 -257 138 0 
-174 -257 -179 0 
-179 -258 52 0 
-179 -258 143 0 
-179 -258 -184 0 
-184 -259 56 0 
-184 -259 148 0 
-184 -259 -189 0 
-16 -10 -260 57 0 
-16 -10 -260 149 0 
-16 -10 -260 -149 0 
-149 -99 -261 61 0 
-149 -99 -261 154 0 
-149 -99 -261 -154 0 
-154 -100 -262 65 0 
-154 -100 -262 159 0 
-154 -100 -262 -159 0 
-159 -101 -263 69 0 
-159 -101 -263 164 0 
-159 -101 -263 -164 0 
-164 -102 -264 73 0 
-164 -102 -264 169 0 
-164 -102 -264 -169 0 
-169 -103 -265 77 0 
-169 -103 -265 174 0 
-169 -103 -265 -174 0 
-174 -104 -266 81 0 
-174 -104 -266 179 0 
-174 -104 -266 -179 0 
-179 -105 -267 85 0 
-179 -105 -267 184 0 
-179 -105 -267 -184 0 
-184 -106 -268 89 0 
-184 -106 -268 189 0 
-184 -106 -268 -189 0 
-1 24 0 
-11 -215 2 0 
-2 11 0 
-2 215 0 
-11 -9 -233 3 0 
-3 11 0 
-3 9 0 
-3 233 0 
-16 -251 4 0 
-4 16 0 
-4 251 0 
2 3 4 1 -24 0 
-24 28 0 
-108 -216 25 0 
-25 108 0 
-25 216 0 
-108 -90 -234 26 0 
-26 108 0 
-26 90 0 
-26 234 0 
-149 -252 27 0 
-27 149 0 
-27 252 0 
25 26 27 24 -28 0 
-28 32 0 
-113 -217 29 0 
-29 113 0 
-29 217 0 
-113 -91 -235 30 0 
-30 113 0 
-30 91 0 
-30 235 0 
-154 -253 31 0 
-31 154 0 
-31 253 0 
29 30 31 28 -32 0 
-32 36 0 
-118 -218 33 0 
-33 118 0 
-33 218 0 
-118 -92 -236 34 0 
-34 118 0 
-34 92 0 
-34 236 0 
-159 -254 35 0 
-35 159 0 
-35 254 0 
33 34 35 32 -36 0 
-36 40 0 
-123 -219 37 0 
-37 123 0 
-37 219 0 
-123 -93 -237 38 0 
-38 123 0 
-38 93 0 
-38 237 0 
-164 -255 39 0 
-39 164 0 
-39 255 0 
37 38 39 36 -40 0 
-40 44 0 
-128 -220 41 0 
-41 128 0 
-41 220 0 
-128 -94 -238 42 0 
-42 128 0 
-42 94 0 
-42 238 0 
-169 -256 43 0 
-43 169 0 
-43 256 0 
41 42 43 40 -44 0 
-44 48 0 
-133 -221 45 0 
-45 133 0 
-45 221 0 
-133 -95 -239 46 0 
-46 133 0 
-46 95 0 
-46 239 0 
-174 -257 47 0 
-47 174 0 
-47 257 0 
45 46 47 44 -48 0 
-48 52 0 
-138 -222 49 0 
-49 138 0 
-49 222 0 
-138 -96 -240 50 0 
-50 138 0 
-50 96 0 
-50 240 0 
-179 -258 51 0 
-51 179 0 
-51 258 0 
49 50 51 48 -52 0 
-52 56 0 
-143 -223 53 0 
-53 143 0 
-53 223 0 
-143 -97 -241 54 0 
-54 143 0 
-54 97 0 
-54 241 0 
-184 -259 55 0 
-55 184 0 
-55 259 0 
53 54 55 52 -56 0 
-5 57 0 
-16 -224 6 0 
-6 16 0 
-6 224 0 
-11 -242 7 0 
-7 11 0 
-7 242 0 
-16 -10 -260 8 0 
-8 16 0 
-8 10 0 
-8 260 0 
6 7 8 5 -57 0 
-57 61 0 
-149 -225 58 0 
-58 149 0 
-58 225 0 
-108 -243 59 0 
-59 108 0 
-59 243 0 
-149 -99 -261 60 0 
-60 149 0 
-60 99 0 
-60 261 0 
58 59 60 57 -61 0 
-61 65 0 
-154 -226 62 0 
-62 154 0 
-62 226 0 
-113 -244 63 0 
-63 113 0 
-63 244 0 
-154 -100 -262 64 0 
-64 154 0 
-64 100 0 
-64 262 0 
62 63 64 61 -65 0 
-65 69 0 
-159 -227 66 0 
-66 159 0 
-66 227 0 
-118 -245 67 0 
-67 118 0 
-67 245 0 
-159 -101 -263 68 0 
-68 159 0 
-68 101 0 
-68 263 0 
66 67 68 65 -69 0 
-69 73 0 
-164 -228 70 0 
-70 164 0 
-70 228 0 
-123 -246 71 0 
-71 123 0 
-71 246 0 
-164 -102 -264 72 0 
-72 164 0 
-72 102 0 
-72 264 0 
70 71 72 69 -73 0 
-73 77 0 
-169 -229 74 0 
-74 169 0 
-74 229 0 
-128 -247 75 0 
-75 128 0 
-75 247 0 
-169 -103 -265 76 0 
-76 169 0 
-76 103 0 
-76 265 0 
74 75 76 73 -77 0 
-77 81 0 
-174 -230 78 0 
-78 174 0 
-78 230 0 
-133 -248 79 0 
-79 133 0 
-79 248 0 
-174 -104 -266 80 0 
-80 174 0 
-80 104 0 
-80 266 0 
78 79 80 77 -81 0 
-81 85 0 
-179 -231 82 0 
-82 179 0 
-82 231 0 
-138 -249 83 0 
-83 138 0 
-83 249 0 
-179 -105 -267 84 0 
-84 179 0 
-84 105 0 
-84 267 0 
82 83 84 81 -85 0 
-85 89 0 
-184 -232 86 0 
-86 184 0 
-86 232 0 
-143 -250 87 0 
-87 143 0 
-87 250 0 
-184 -106 -268 88 0 
-88 184 0 
-88 106 0 
-88 268 0 
86 87 88 85 -89 0 
-9 90 0 
9 -90 0 
-90 91 0 
90 -91 0 
-91 92 0 
91 -92 0 
-92 93 0 
92 -93 0 
-93 94 0 
93 -94 0 
-94 95 0 
94 -95 0 
-95 96 0 
95 -96 0 
-96 97 0 
96 -97 0 
-97 98 0 
97 -98 0 
-10 99 0 
10 -99 0 
-99 100 0 
99 -100 0 
-100 101 0 
100 -101 0 
-101 102 0 
101 -102 0 
-102 103 0 
102 -103 0 
-103 104 0 
103 -104 0 
-104 105 0 
104 -105 0 
-105 106 0 
105 -106 0 
-106 107 0 
106 -107 0 
-11 -9 -233 12 0 
-12 11 0 
-12 9 0 
-12 233 0 
-11 -242 13 0 
-13 11 0 
-13 242 0 
12 13 -11 108 0 
-11 -9 -233 14 0 
-14 11 0 
-14 9 0 
-14 233 0 
-16 -251 15 0 
-15 16 0 
-15 251 0 
14 15 11 -108 0 
-108 -90 -234 109 0 
-109 108 0 
-109 90 0 
-109 234 0 
-108 -243 110 0 
-110 108 0 
-110 243 0 
109 110 -108 113 0 
-108 -90 -234 111 0 
-111 108 0 
-111 90 0 
-111 234 0 
-149 -252 112 0 
-112 149 0 
-112 252 0 
111 112 108 -113 0 
-113 -91 -235 114 0 
-114 113 0 
-114 91 0 
-114 235 0 
-113 -244 115 0 
-115 113 0 
-115 244 0 
114 115 -113 118 0 
-113 -91 -235 116 0 
-116 113 0 
-116 91 0 
-116 235 0 
-154 -253 117 0 
-117 154 0 
-117 253 0 
116 117 113 -118 0 
-118 -92 -236 119 0 
-119 118 0 
-119 92 0 
-119 236 0 
-118 -245 120 0 
-120 118 0 
-120 245 0 
119 120 -118 123 0 
-118 -92 -236 121 0 
-121 118 0 
-121 92 0 
-121 236 0 
-159 -254 122 0 
-122 159 0 
-122 254 0 
121 122 118 -123 0 
-123 -93 -237 124 0 
-124 123 0 
-124 93 0 
-124 237 0 
-123 -246 125 0 
-125 123 0 
-125 246 0 
124 125 -123 128 0 
-123 -93 -237 126 0 
-126 123 0 
-126 93 0 
-126 237 0 
-164 -255 127 0 
-127 164 0 
-127 255 0 
126 127 123 -128 0 
-128 -94 -238 129 0 
-129 128 0 
-129 94 0 
-129 238 0 
-128 -247 130 0 
-130 128 0 
-130 247 0 
129 130 -128 133 0 
-128 -94 -238 131 0 
-131 128 0 
-131 94 0 
-131 238 0 
-169 -256 132 0 
-132 169 0 
-132 256 0 
131 132 128 -133 0 
-133 -95 -239 134 0 
-134 133 0 
-134 95 0 
-134 239 0 
-133 -248 135 0 
-135 133 0 
-135 248 0 
134 135 -133 138 0 
-133 -95 -239 136 0 
-136 133 0 
-136 95 0 
-136 239 0 
-174 -257 137 0 
-137 174 0 
-137 257 0 
136 137 133 -138 0 
-138 -96 -240 139 0 
-139 138 0 
-139 96 0 
-139 240 0 
-138 -249 140 0 
-140 138 0 
-140 249 0 
139 140 -138 143 0 
-138 -96 -240 141 0 
-141 138 0 
-141 96 0 
-141 240 0 
-179 -258 142 0 
-142 179 0 
-142 258 0 
141 142 138 -143 0 
-143 -97 -241 144 0 
-144 143 0 
-144 97 0 
-144 241 0 
-143 -250 145 0 
-145 143 0 
-145 250 0 
144 145 -143 148 0 
-143 -97 -241 146 0 
-146 143 0 
-146 97 0 
-146 241 0 
-184 -259 147 0 
-147 184 0 
-147 259 0 
146 147 143 -148 0 
-16 -251 17 0 
-17 16 0 
-17 251 0 
-16 -10 -260 18 0 
-18 16 0 
-18 10 0 
-18 260 0 
17 18 -16 149 0 
-11 -242 19 0 
-19 11 0 
-19 242 0 
-16 -10 -260 20 0 
-20 16 0 
-20 10 0 
-20 260 0 
19 20 16 -149 0 
-149 -252 150 0 
-150 149 0 
-150 252 0 
-149 -99 -261 151 0 
-151 149 0 
-151 99 0 
-151 261 0 
150 151 -149 154 0 
-108 -243 152 0 
-152 108 0 
-152 243 0 
-149 -99 -261 153 0 
-153 149 0 
-153 99 0 
-153 261 0 
152 153 149 -154 0 
-154 -253 155 0 
-155 154 0 
-155 253 0 
-154 -100 -262 156 0 
-156 154 0 
-156 100 0 
-156 262 0 
155 156 -154 159 0 
-113 -244 157 0 
-157 113 0 
-157 244 0 
-154 -100 -262 158 0 
-158 154 0 
-158 100 0 
-158 262 0 
157 158 154 -159 0 
-159 -254 160 0 
-160 159 0 
-160 254 0 
-159 -101 -263 161 0 
-161 159 0 
-161 101 0 
-161 263 0 
160 161 -159 164 0 
-118 -245 162 0 
-162 118 0 
-162 245 0 
-159 -101 -263 163 0 
-163 159 0 
-163 101 0 
-163 263 0 
162 163 159 -164 0 
-164 -255 165 0 
-165 164 0 
-165 255 0 
-164 -102 -264 166 0 
-166 164 0 
-166 102 0 
-166 264 0 
165 166 -164 169 0 
-123 -246 167 0 
-167 123 0 
-167 246 0 
-164 -102 -264 168 0 
-168 164 0 
-168 102 0 
-168 264 0 
167 168 164 -169 0 
-169 -256 170 0 
-170 169 0 
-170 256 0 
-169 -103 -265 171 0 
-171 169 0 
-171 103 0 
-171 265 0 
170 171 -169 174 0 
-128 -247 172 0 
-172 128 0 
-172 247 0 
-169 -103 -265 173 0 
-173 169 0 
-173 103 0 
-173 265 0 
172 173 169 -174 0 
-174 -257 175 0 
-175 174 0 
-175 257 0 
-174 -104 -266 176 0 
-176 174 0 
-176 104 0 
-176 266 0 
175 176 -174 179 0 
-133 -248 177 0 
-177 133 0 
-177 248 0 
-174 -104 -266 178 0 
-178 174 0 
-178 104 0 
-178 266 0 
177 178 174 -179 0 
-179 -258 180 0 
-180 179 0 
-180 258 0 
-179 -105 -267 181 0 
-181 179 0 
-181 105 0 
-181 267 0 
180 181 -179 184 0 
-138 -249 182 0 
-182 138 0 
-182 249 0 
-179 -105 -267 183 0 
-183 179 0 
-183 105 0 
-183 267 0 
182 183 179 -184 0 
-184 -259 185 0 
-185 184 0 
-185 259 0 
-184 -106 -268 186 0 
-186 184 0 
-186 106 0 
-186 268 0 
185 186 -184 189 0 
-143 -250 187 0 
-187 143 0 
-187 250 0 
-184 -106 -268 188 0 
-188 184 0 
-188 106 0 
-188 268 0 
187 188 184 -189 0 
-21 190 0 
-11 -215 22 0 
-22 11 0 
-22 215 0 
-16 -224 23 0 
-23 16 0 
-23 224 0 
22 23 21 -190 0 
-190 193 0 
-108 -216 191 0 
-191 108 0 
-191 216 0 
-149 -225 192 0 
-192 149 0 
-192 225 0 
191 192 190 -193 0 
-193 196 0 
-113 -217 194 0 
-194 113 0 
-194 217 0 
-154 -226 195 0 
-195 154 0 
-195 226 0 
194 195 193 -196 0 
-196 199 0 
-118 -218 197 0 
-197 118 0 
-197 218 0 
-159 -227 198 0 
-198 159 0 
-198 227 0 
197 198 196 -199 0 
-199 202 0 
-123 -219 200 0 
-200 123 0 
-200 219 0 
-164 -228 201 0 
-201 164 0 
-201 228 0 
200 201 199 -202 0 
-202 205 0 
-128 -220 203 0 
-203 128 0 
-203 220 0 
-169 -229 204 0 
-204 169 0 
-204 229 0 
203 204 202 -205 0 
-205 208 0 
-133 -221 206 0 
-206 133 0 
-206 221 0 
-174 -230 207 0 
-207 174 0 
-207 230 0 
206 207 205 -208 0 
-208 211 0 
-138 -222 209 0 
-209 138 0 
-209 222 0 
-179 -231 210 0 
-210 179 0 
-210 231 0 
209 210 208 -211 0 
-211 214 0 
-143 -223 212 0 
-212 143 0 
-212 223 0 
-184 -232 213 0 
-213 184 0 
-213 232 0 
212 213 211 -214 0 
-233 -242 0 
-233 -251 0 
-234 -243 0 
-234 -252 0 
-235 -244 0 
-235 -253 0 
-236 -245 0 
-236 -254 0 
-237 -246 0 
-237 -255 0 
-238 -247 0 
-238 -256 0 
-239 -248 0 
-239 -257 0 
-240 -249 0 
-240 -258 0 
-241 -250 0 
-241 -259 0 
-242 -251 0 
-242 -260 0 
-243 -252 0 
-243 -261 0 
-244 -253 0 
-244 -262 0 
-245 -254 0 
-245 -263 0 
-246 -255 0 
-246 -264 0 
-247 -256 0 
-247 -265 0 
-248 -257 0 
-248 -266 0 
-249 -258 0 
-249 -267 0 
-250 -259 0 
-250 -268 0 
-251 -260 0 
-252 -261 0 
-253 -262 0 
-254 -263 0 
-255 -264 0 
-256 -265 0 
-257 -266 0 
-258 -267 0 
-259 -268 0 
